\* Problem: Blade Runner *\

Minimize
 obj: + 272 x_1 + 1255 x_2 + 1234 x_3 + 1089 x_4 + 1274 x_5 + 1261 x_6
 + 1076 x_7 + 1338 x_8 + 1784 x_9 + 1763 x_10 + 1727 x_11 + 1790 x_12
 + 1714 x_13 + 1204 x_14 + 671 x_15 + 1291 x_16 + 1318 x_17 + 1170 x_18
 + 1812 x_19 + 1763 x_20 + 1253 x_21 + 580 x_22 + 688 x_23 + 1287 x_24
 + 1314 x_25 + 1167 x_26 + 1816 x_27 + 1775 x_28 + 1265 x_29 + 607 x_30
 + 604 x_31 + 794 x_32 + 1239 x_33 + 1266 x_34 + 1106 x_35 + 1768 x_36
 + 1744 x_37 + 1422 x_38 + 1296 x_39 + 1170 x_40 + 1471 x_41 + 822 x_42
 + 1167 x_43 + 1480 x_44 + 819 x_45 + 758 x_46 + 595 x_47 + 1275 x_48
 + 1284 x_49 + 1099 x_50 + 1804 x_51 + 1737 x_52 + 1501 x_53 + 837 x_54
 + 844 x_55 + 861 x_56 + 594 x_57 + 657 x_58 + 1319 x_59 + 1320 x_60
 + 1137 x_61 + 1323 x_62 + 1138 x_63 + 1585 x_64 + 1849 x_65 + 1852 x_66
 + 1776 x_67 + 1586 x_68 + 923 x_69 + 1377 x_70 + 1232 x_71 + 1597 x_72
 + 924 x_73 + 930 x_74 + 1373 x_75 + 1229 x_76 + 1592 x_77 + 934 x_78
 + 931 x_79 + 935 x_80 + 1325 x_81 + 1168 x_82 + 1600 x_83 + 1000 x_84
 + 997 x_85 + 936 x_86 + 1342 x_87 + 1160 x_88 + 1587 x_89 + 923 x_90
 + 930 x_91 + 947 x_92 + 680 x_93 + 658 x_94 + 606 x_95 + 1520 x_96
 + 1547 x_97 + 1377 x_98 + 1911 x_99 + 1862 x_100 + 1352 x_101
 + 821 x_102 + 848 x_103 + 1387 x_104 + 1570 x_105 + 1039 x_106
 + 920 x_107 + 989 x_108 + 1606 x_109 + 1439 x_110 + 1734 x_111
 + 1165 x_112 + 1175 x_113 + 1217 x_114 + 1006 x_115 + 990 x_116
 + 340 x_117 + 477 x_118 + 1400 x_119 + 1379 x_120 + 1248 x_121
 + 1406 x_122 + 1235 x_123 + 1382 x_124 + 1807 x_125 + 1758 x_126
 + 1248 x_127 + 1394 x_128 + 1273 x_129 + 1297 x_130 + 683 x_131
 + 1393 x_132 + 1273 x_133 + 1309 x_134 + 710 x_135 + 1379 x_136
 + 1246 x_137 + 1466 x_138 + 925 x_139 + 925 x_140 + 898 x_141
 + 1420 x_142 + 1258 x_143 + 1545 x_144 + 783 x_145 + 855 x_146
 + 1465 x_147 + 1468 x_148 + 1297 x_149 + 1893 x_150 + 1820 x_151
 + 1630 x_152 + 1027 x_153 + 1037 x_154 + 1076 x_155 + 869 x_156
 + 856 x_157 + 1520 x_158 + 1376 x_159 + 1379 x_160 + 1039 x_161
 + 997 x_162 + 367 x_163 + 226 x_164 + 856 x_165 + 1369 x_166
 + 1396 x_167 + 1276 x_168 + 1809 x_169 + 1760 x_170 + 1250 x_171
 + 765 x_172 + 773 x_173 + 945 x_174 + 1008 x_175 + 1455 x_176
 + 1338 x_177 + 1587 x_178 + 1102 x_179 + 1100 x_180 + 1123 x_181
 + 1093 x_182 + 1307 x_183 + 970 x_184 + 1453 x_185 + 1360 x_186
 + 1294 x_187 + 1177 x_188 + 840 x_189 + 756 x_190 + 658 x_191
 + 1429 x_192 + 1456 x_193 + 1307 x_194 + 1778 x_195 + 1729 x_196
 + 1219 x_197 + 718 x_198 + 746 x_199 + 958 x_200 + 916 x_201
 + 1515 x_202 + 1369 x_203 + 1601 x_204 + 1062 x_205 + 1073 x_206
 + 1136 x_207 + 999 x_208 + 1139 x_209 + 606 x_210 + 1457 x_211
 + 1335 x_212 + 1247 x_213 + 1027 x_214 + 494 x_215 + 841 x_216
 + 466 x_217 + 282 x_218 + 1233 x_219 + 1076 x_220 + 1714 x_221
 + 1224 x_222 + 586 x_223 + 609 x_224 + 758 x_225 + 599 x_226
 + 1319 x_227 + 1138 x_228 + 1594 x_229 + 930 x_230 + 936 x_231
 + 666 x_232 + 422 x_233 + 1235 x_234 + 1268 x_235 + 861 x_236
 + 293 x_237 + 766 x_238 + 502 x_239 + 98 x_240

Subject To
 r_1: + x_240 + x_239 + x_238 + x_237 + x_236 + x_235 + x_234 + x_233
 + x_232 + x_231 + x_230 + x_229 + x_228 + x_227 + x_226 + x_225 + x_224
 + x_223 + x_222 + x_221 + x_220 + x_219 + x_218 = 1
 r_2: + x_239 + x_217 + x_216 + x_215 + x_214 + x_213 + x_212 + x_211
 + x_210 + x_209 + x_208 + x_207 + x_206 + x_205 + x_204 + x_203 + x_202
 + x_201 + x_200 + x_199 + x_198 + x_197 + x_196 + x_195 + x_194 + x_193
 + x_192 + x_191 = 1
 r_3: + x_238 + x_216 + x_190 + x_189 + x_188 + x_187 + x_186 + x_185
 + x_184 + x_183 + x_182 + x_181 + x_180 + x_179 + x_178 + x_177 + x_176
 + x_175 + x_174 + x_173 + x_172 + x_171 + x_170 + x_169 + x_168 + x_167
 + x_166 + x_165 = 1
 r_4: + x_237 + x_236 + x_235 + x_234 + x_215 + x_214 + x_213 + x_212
 + x_211 + x_189 + x_188 + x_187 + x_186 + x_185 + x_164 + x_163 + x_162
 + x_161 + x_160 + x_159 + x_158 + x_157 + x_156 + x_155 + x_154 + x_153
 + x_152 + x_151 + x_150 + x_149 + x_148 + x_147 + x_146 + x_145 + x_144
 + x_143 + x_142 + x_141 + x_140 + x_139 + x_138 + x_137 + x_136 + x_135
 + x_134 + x_133 + x_132 + x_131 + x_130 + x_129 + x_128 + x_127 + x_126
 + x_125 + x_124 + x_123 + x_122 + x_121 + x_120 + x_119 + x_118 = 1
 r_5: + x_233 + x_210 + x_209 + x_184 + x_183 + x_163 + x_162 + x_161
 + x_160 + x_159 + x_158 + x_117 + x_116 + x_115 + x_114 + x_113 + x_112
 + x_111 + x_110 + x_109 + x_108 + x_107 + x_106 + x_105 + x_104 + x_103
 + x_102 + x_101 + x_100 + x_99 + x_98 + x_97 + x_96 + x_95 = 1
 r_6: + x_236 + x_232 + x_231 + x_230 + x_229 + x_228 + x_227 + x_214
 + x_209 + x_208 + x_207 + x_206 + x_205 + x_204 + x_203 + x_202 + x_188
 + x_183 + x_182 + x_181 + x_180 + x_179 + x_178 + x_177 + x_176 + x_162
 + x_157 + x_156 + x_155 + x_154 + x_153 + x_152 + x_151 + x_150 + x_149
 + x_148 + x_147 + x_146 + x_116 + x_115 + x_114 + x_113 + x_112 + x_111
 + x_110 + x_109 + x_108 + x_94 + x_93 + x_92 + x_91 + x_90 + x_89
 + x_88 + x_87 + x_86 + x_85 + x_84 + x_83 + x_82 + x_81 + x_80 + x_79
 + x_78 + x_77 + x_76 + x_75 + x_74 + x_73 + x_72 + x_71 + x_70 + x_69
 + x_68 + x_67 + x_66 + x_65 + x_64 + x_63 + x_62 + x_61 + x_60 + x_59
 + x_58 = 1
 r_7: + x_226 + x_201 + x_175 + x_156 + x_145 + x_144 + x_143 + x_142
 + x_115 + x_107 + x_93 + x_92 + x_91 + x_90 + x_89 + x_88 + x_87 + x_57
 + x_56 + x_55 + x_54 + x_53 + x_52 + x_51 + x_50 + x_49 + x_48 + x_47
 = 1
 r_8: + x_231 + x_225 + x_207 + x_200 + x_181 + x_174 + x_161 + x_155
 + x_141 + x_140 + x_139 + x_138 + x_137 + x_136 + x_114 + x_106 + x_105
 + x_104 + x_92 + x_86 + x_85 + x_84 + x_83 + x_82 + x_81 + x_80 + x_56
 + x_46 + x_45 + x_44 + x_43 + x_42 + x_41 + x_40 + x_39 + x_38 + x_37
 + x_36 + x_35 + x_34 + x_33 + x_32 = 1
 r_9: + x_224 + x_206 + x_199 + x_180 + x_173 + x_154 + x_140 + x_135
 + x_134 + x_133 + x_132 + x_113 + x_103 + x_91 + x_85 + x_79 + x_78
 + x_77 + x_76 + x_75 + x_74 + x_55 + x_45 + x_44 + x_43 + x_31 + x_30
 + x_29 + x_28 + x_27 + x_26 + x_25 + x_24 + x_23 = 1
 r_10: + x_230 + x_223 + x_205 + x_198 + x_179 + x_172 + x_153 + x_139
 + x_131 + x_130 + x_129 + x_128 + x_112 + x_102 + x_90 + x_84 + x_78
 + x_73 + x_72 + x_71 + x_70 + x_69 + x_54 + x_42 + x_41 + x_40 + x_39
 + x_30 + x_22 + x_21 + x_20 + x_19 + x_18 + x_17 + x_16 + x_15 = 1
 r_11: + x_235 + x_229 + x_222 + x_221 + x_213 + x_204 + x_197 + x_196
 + x_195 + x_187 + x_178 + x_171 + x_170 + x_169 + x_160 + x_152 + x_151
 + x_150 + x_144 + x_138 + x_134 + x_130 + x_127 + x_126 + x_125 + x_124
 + x_111 + x_105 + x_101 + x_100 + x_99 + x_89 + x_83 + x_77 + x_72
 + x_68 + x_67 + x_66 + x_65 + x_64 + x_53 + x_52 + x_51 + x_44 + x_41
 + x_38 + x_37 + x_36 + x_29 + x_28 + x_27 + x_21 + x_20 + x_19 + x_14
 + x_13 + x_12 + x_11 + x_10 + x_9 + x_8 = 1
 r_12: + x_234 + x_228 + x_221 + x_220 + x_212 + x_203 + x_196 + x_194
 + x_193 + x_186 + x_177 + x_170 + x_168 + x_167 + x_159 + x_151 + x_149
 + x_148 + x_143 + x_137 + x_133 + x_129 + x_126 + x_123 + x_122 + x_121
 + x_110 + x_104 + x_100 + x_98 + x_97 + x_88 + x_82 + x_76 + x_71
 + x_67 + x_66 + x_63 + x_62 + x_61 + x_52 + x_50 + x_49 + x_43 + x_40
 + x_37 + x_35 + x_34 + x_28 + x_26 + x_25 + x_20 + x_18 + x_17 + x_13
 + x_12 + x_11 + x_7 + x_6 + x_5 + x_4 = 1
 r_13: + x_227 + x_219 + x_211 + x_202 + x_195 + x_193 + x_192 + x_185
 + x_176 + x_169 + x_167 + x_166 + x_158 + x_150 + x_148 + x_147 + x_142
 + x_136 + x_132 + x_128 + x_125 + x_122 + x_120 + x_119 + x_109 + x_99
 + x_97 + x_96 + x_87 + x_81 + x_75 + x_70 + x_66 + x_65 + x_62 + x_60
 + x_59 + x_51 + x_49 + x_48 + x_39 + x_36 + x_34 + x_33 + x_27 + x_25
 + x_24 + x_19 + x_17 + x_16 + x_12 + x_10 + x_9 + x_6 + x_5 + x_3 + x_2
 = 1
 r_14: + x_218 + x_191 + x_165 + x_146 + x_124 + x_121 + x_119 + x_118
 + x_108 + x_95 + x_80 + x_74 + x_69 + x_64 + x_61 + x_59 + x_58 + x_47
 + x_32 + x_23 + x_15 + x_11 + x_9 + x_8 + x_5 + x_4 + x_2 + x_1 = 1

Bounds
 0 <= x_1 <= 1
 0 <= x_2 <= 1
 0 <= x_3 <= 1
 0 <= x_4 <= 1
 0 <= x_5 <= 1
 0 <= x_6 <= 1
 0 <= x_7 <= 1
 0 <= x_8 <= 1
 0 <= x_9 <= 1
 0 <= x_10 <= 1
 0 <= x_11 <= 1
 0 <= x_12 <= 1
 0 <= x_13 <= 1
 0 <= x_14 <= 1
 0 <= x_15 <= 1
 0 <= x_16 <= 1
 0 <= x_17 <= 1
 0 <= x_18 <= 1
 0 <= x_19 <= 1
 0 <= x_20 <= 1
 0 <= x_21 <= 1
 0 <= x_22 <= 1
 0 <= x_23 <= 1
 0 <= x_24 <= 1
 0 <= x_25 <= 1
 0 <= x_26 <= 1
 0 <= x_27 <= 1
 0 <= x_28 <= 1
 0 <= x_29 <= 1
 0 <= x_30 <= 1
 0 <= x_31 <= 1
 0 <= x_32 <= 1
 0 <= x_33 <= 1
 0 <= x_34 <= 1
 0 <= x_35 <= 1
 0 <= x_36 <= 1
 0 <= x_37 <= 1
 0 <= x_38 <= 1
 0 <= x_39 <= 1
 0 <= x_40 <= 1
 0 <= x_41 <= 1
 0 <= x_42 <= 1
 0 <= x_43 <= 1
 0 <= x_44 <= 1
 0 <= x_45 <= 1
 0 <= x_46 <= 1
 0 <= x_47 <= 1
 0 <= x_48 <= 1
 0 <= x_49 <= 1
 0 <= x_50 <= 1
 0 <= x_51 <= 1
 0 <= x_52 <= 1
 0 <= x_53 <= 1
 0 <= x_54 <= 1
 0 <= x_55 <= 1
 0 <= x_56 <= 1
 0 <= x_57 <= 1
 0 <= x_58 <= 1
 0 <= x_59 <= 1
 0 <= x_60 <= 1
 0 <= x_61 <= 1
 0 <= x_62 <= 1
 0 <= x_63 <= 1
 0 <= x_64 <= 1
 0 <= x_65 <= 1
 0 <= x_66 <= 1
 0 <= x_67 <= 1
 0 <= x_68 <= 1
 0 <= x_69 <= 1
 0 <= x_70 <= 1
 0 <= x_71 <= 1
 0 <= x_72 <= 1
 0 <= x_73 <= 1
 0 <= x_74 <= 1
 0 <= x_75 <= 1
 0 <= x_76 <= 1
 0 <= x_77 <= 1
 0 <= x_78 <= 1
 0 <= x_79 <= 1
 0 <= x_80 <= 1
 0 <= x_81 <= 1
 0 <= x_82 <= 1
 0 <= x_83 <= 1
 0 <= x_84 <= 1
 0 <= x_85 <= 1
 0 <= x_86 <= 1
 0 <= x_87 <= 1
 0 <= x_88 <= 1
 0 <= x_89 <= 1
 0 <= x_90 <= 1
 0 <= x_91 <= 1
 0 <= x_92 <= 1
 0 <= x_93 <= 1
 0 <= x_94 <= 1
 0 <= x_95 <= 1
 0 <= x_96 <= 1
 0 <= x_97 <= 1
 0 <= x_98 <= 1
 0 <= x_99 <= 1
 0 <= x_100 <= 1
 0 <= x_101 <= 1
 0 <= x_102 <= 1
 0 <= x_103 <= 1
 0 <= x_104 <= 1
 0 <= x_105 <= 1
 0 <= x_106 <= 1
 0 <= x_107 <= 1
 0 <= x_108 <= 1
 0 <= x_109 <= 1
 0 <= x_110 <= 1
 0 <= x_111 <= 1
 0 <= x_112 <= 1
 0 <= x_113 <= 1
 0 <= x_114 <= 1
 0 <= x_115 <= 1
 0 <= x_116 <= 1
 0 <= x_117 <= 1
 0 <= x_118 <= 1
 0 <= x_119 <= 1
 0 <= x_120 <= 1
 0 <= x_121 <= 1
 0 <= x_122 <= 1
 0 <= x_123 <= 1
 0 <= x_124 <= 1
 0 <= x_125 <= 1
 0 <= x_126 <= 1
 0 <= x_127 <= 1
 0 <= x_128 <= 1
 0 <= x_129 <= 1
 0 <= x_130 <= 1
 0 <= x_131 <= 1
 0 <= x_132 <= 1
 0 <= x_133 <= 1
 0 <= x_134 <= 1
 0 <= x_135 <= 1
 0 <= x_136 <= 1
 0 <= x_137 <= 1
 0 <= x_138 <= 1
 0 <= x_139 <= 1
 0 <= x_140 <= 1
 0 <= x_141 <= 1
 0 <= x_142 <= 1
 0 <= x_143 <= 1
 0 <= x_144 <= 1
 0 <= x_145 <= 1
 0 <= x_146 <= 1
 0 <= x_147 <= 1
 0 <= x_148 <= 1
 0 <= x_149 <= 1
 0 <= x_150 <= 1
 0 <= x_151 <= 1
 0 <= x_152 <= 1
 0 <= x_153 <= 1
 0 <= x_154 <= 1
 0 <= x_155 <= 1
 0 <= x_156 <= 1
 0 <= x_157 <= 1
 0 <= x_158 <= 1
 0 <= x_159 <= 1
 0 <= x_160 <= 1
 0 <= x_161 <= 1
 0 <= x_162 <= 1
 0 <= x_163 <= 1
 0 <= x_164 <= 1
 0 <= x_165 <= 1
 0 <= x_166 <= 1
 0 <= x_167 <= 1
 0 <= x_168 <= 1
 0 <= x_169 <= 1
 0 <= x_170 <= 1
 0 <= x_171 <= 1
 0 <= x_172 <= 1
 0 <= x_173 <= 1
 0 <= x_174 <= 1
 0 <= x_175 <= 1
 0 <= x_176 <= 1
 0 <= x_177 <= 1
 0 <= x_178 <= 1
 0 <= x_179 <= 1
 0 <= x_180 <= 1
 0 <= x_181 <= 1
 0 <= x_182 <= 1
 0 <= x_183 <= 1
 0 <= x_184 <= 1
 0 <= x_185 <= 1
 0 <= x_186 <= 1
 0 <= x_187 <= 1
 0 <= x_188 <= 1
 0 <= x_189 <= 1
 0 <= x_190 <= 1
 0 <= x_191 <= 1
 0 <= x_192 <= 1
 0 <= x_193 <= 1
 0 <= x_194 <= 1
 0 <= x_195 <= 1
 0 <= x_196 <= 1
 0 <= x_197 <= 1
 0 <= x_198 <= 1
 0 <= x_199 <= 1
 0 <= x_200 <= 1
 0 <= x_201 <= 1
 0 <= x_202 <= 1
 0 <= x_203 <= 1
 0 <= x_204 <= 1
 0 <= x_205 <= 1
 0 <= x_206 <= 1
 0 <= x_207 <= 1
 0 <= x_208 <= 1
 0 <= x_209 <= 1
 0 <= x_210 <= 1
 0 <= x_211 <= 1
 0 <= x_212 <= 1
 0 <= x_213 <= 1
 0 <= x_214 <= 1
 0 <= x_215 <= 1
 0 <= x_216 <= 1
 0 <= x_217 <= 1
 0 <= x_218 <= 1
 0 <= x_219 <= 1
 0 <= x_220 <= 1
 0 <= x_221 <= 1
 0 <= x_222 <= 1
 0 <= x_223 <= 1
 0 <= x_224 <= 1
 0 <= x_225 <= 1
 0 <= x_226 <= 1
 0 <= x_227 <= 1
 0 <= x_228 <= 1
 0 <= x_229 <= 1
 0 <= x_230 <= 1
 0 <= x_231 <= 1
 0 <= x_232 <= 1
 0 <= x_233 <= 1
 0 <= x_234 <= 1
 0 <= x_235 <= 1
 0 <= x_236 <= 1
 0 <= x_237 <= 1
 0 <= x_238 <= 1
 0 <= x_239 <= 1
 0 <= x_240 <= 1

Generals
 x_1
 x_2
 x_3
 x_4
 x_5
 x_6
 x_7
 x_8
 x_9
 x_10
 x_11
 x_12
 x_13
 x_14
 x_15
 x_16
 x_17
 x_18
 x_19
 x_20
 x_21
 x_22
 x_23
 x_24
 x_25
 x_26
 x_27
 x_28
 x_29
 x_30
 x_31
 x_32
 x_33
 x_34
 x_35
 x_36
 x_37
 x_38
 x_39
 x_40
 x_41
 x_42
 x_43
 x_44
 x_45
 x_46
 x_47
 x_48
 x_49
 x_50
 x_51
 x_52
 x_53
 x_54
 x_55
 x_56
 x_57
 x_58
 x_59
 x_60
 x_61
 x_62
 x_63
 x_64
 x_65
 x_66
 x_67
 x_68
 x_69
 x_70
 x_71
 x_72
 x_73
 x_74
 x_75
 x_76
 x_77
 x_78
 x_79
 x_80
 x_81
 x_82
 x_83
 x_84
 x_85
 x_86
 x_87
 x_88
 x_89
 x_90
 x_91
 x_92
 x_93
 x_94
 x_95
 x_96
 x_97
 x_98
 x_99
 x_100
 x_101
 x_102
 x_103
 x_104
 x_105
 x_106
 x_107
 x_108
 x_109
 x_110
 x_111
 x_112
 x_113
 x_114
 x_115
 x_116
 x_117
 x_118
 x_119
 x_120
 x_121
 x_122
 x_123
 x_124
 x_125
 x_126
 x_127
 x_128
 x_129
 x_130
 x_131
 x_132
 x_133
 x_134
 x_135
 x_136
 x_137
 x_138
 x_139
 x_140
 x_141
 x_142
 x_143
 x_144
 x_145
 x_146
 x_147
 x_148
 x_149
 x_150
 x_151
 x_152
 x_153
 x_154
 x_155
 x_156
 x_157
 x_158
 x_159
 x_160
 x_161
 x_162
 x_163
 x_164
 x_165
 x_166
 x_167
 x_168
 x_169
 x_170
 x_171
 x_172
 x_173
 x_174
 x_175
 x_176
 x_177
 x_178
 x_179
 x_180
 x_181
 x_182
 x_183
 x_184
 x_185
 x_186
 x_187
 x_188
 x_189
 x_190
 x_191
 x_192
 x_193
 x_194
 x_195
 x_196
 x_197
 x_198
 x_199
 x_200
 x_201
 x_202
 x_203
 x_204
 x_205
 x_206
 x_207
 x_208
 x_209
 x_210
 x_211
 x_212
 x_213
 x_214
 x_215
 x_216
 x_217
 x_218
 x_219
 x_220
 x_221
 x_222
 x_223
 x_224
 x_225
 x_226
 x_227
 x_228
 x_229
 x_230
 x_231
 x_232
 x_233
 x_234
 x_235
 x_236
 x_237
 x_238
 x_239
 x_240

End

RESULT:
GLPK Simplex Optimizer, v4.52
14 rows, 240 columns, 605 non-zeros
      0: obj =   0.000000000e+00  infeas =  1.400e+01 (14)
*    19: obj =   5.439500000e+03  infeas =  0.000e+00 (0)
*    40: obj =   4.654000000e+03  infeas =  0.000e+00 (0)
OPTIMAL LP SOLUTION FOUND
GLPK Integer Optimizer, v4.52
14 rows, 240 columns, 605 non-zeros
240 integer variables, all of which are binary
Integer optimization begins...
+    40: mip =     not found yet >=              -inf        (1; 0)
+    52: >>>>>   4.735000000e+03 >=   4.684000000e+03   1.1% (5; 0)
+    63: mip =   4.735000000e+03 >=     tree is empty   0.0% (0; 9)
INTEGER OPTIMAL SOLUTION FOUND
Nombre de variables = 240
Plus grande tournee = 4
Distance totale = 4735.000000
tournée 1 : [9,10] avec une longueur de 607
tournée 2 : [8,13,12] avec une longueur de 1266
tournée 3 : [6,7] avec une longueur de 680
tournée 4 : [3,11,4] avec une longueur de 1294
tournée 5 : [2,5] avec une longueur de 606
tournée 6 : [1,14] avec une longueur de 282
Temps : 0.011000
